
<<< setup

Tried aggregator 1 time.
LP Presolve eliminated 107 rows and 60 columns.
Reduced LP has 4 rows, 35 columns, and 35 nonzeros.
Presolve time = 0.00 sec. (0.05 ticks)

Iteration log . . .
Iteration:     1   Dual objective     =          1574.520753
main returns 0

<<< main


<<< done

